3233
1958
6281
8940
710
3516
7569
5384
7233
7479
8189
3665
7777
3151
9156
4700
2616
10094
4452
1617
1759
6341
1324
7299
5741
2058
4641
9526
7800
5375
2295
3446
4762
3654
6045
6737
3394
4355
821
2229
2253
5182
4500
8009
1967
2844
970
3416
1895
4999
4381
